; benchmark generated from python API
(set-info :status unknown)
(define-funs-rec ( ( T2_06 ((x!1 Int)) Int)
                   ( p2_06 ((x!1 Int)) Int)
                   ( T2_02 ((x!1 Int)) Int)
                   ( p2_02 ((x!1 Int)) Int))
                 ( ((_ p2_06 0) x!1)
                   (let ((a!1 (mod (- x!1 ((_ p2_06 0) (div x!1 2))) 2)))
                     (ite (= x!1 0) 0 a!1))
                   (let ((a!1 (/ (- 1.0 (^ (- 1) ((_ p2_02 0) x!1))) 2.0)))
                     (to_int a!1))
                   (ite (= x!1 0) 0 (+ ((_ p2_02 0) (div x!1 2)) (mod x!1 2)))))
(assert
 (forall ((n Int) )(let ((?x282 ((_ T2_06 0) n)))
(let ((?x209 ((_ T2_02 0) n)))
(let (($x255 (= ?x209 ?x282)))
(let (($x283 (>= n 0)))
(=> $x283 $x255))))))
)
(check-sat)
